<?xml version = "1.0" standalone="yes"?>
<!-- This file has been generated by DOcplex version 2.23.222  -->
<CPLEXSolution version="1.0">
 <header
   problemName="CVRP"
   objectiveValue="12932.6"
  />
 <variables>
  <variable name="x_0_1" index="0" value="1.00000"/>
  <variable name="x_0_2" index="1" value="1.00000"/>
  <variable name="x_0_5" index="4" value="1.00000"/>
  <variable name="x_0_6" index="5" value="1.00000"/>
  <variable name="x_0_9" index="8" value="1.00000"/>
  <variable name="x_0_11" index="10" value="1.00000"/>
  <variable name="x_0_13" index="12" value="1.00000"/>
  <variable name="x_0_14" index="13" value="1.00000"/>
  <variable name="x_1_12" index="25" value="1.00000"/>
  <variable name="x_2_0" index="28" value="1.00000"/>
  <variable name="x_3_4" index="45" value="1.00000"/>
  <variable name="x_4_0" index="56" value="1.00000"/>
  <variable name="x_5_7" index="76" value="1.00000"/>
  <variable name="x_6_10" index="93" value="1.00000"/>
  <variable name="x_7_0" index="98" value="1.00000"/>
  <variable name="x_8_0" index="112" value="1.00000"/>
  <variable name="x_9_0" index="126" value="1.00000"/>
  <variable name="x_10_0" index="140" value="1.00000"/>
  <variable name="x_11_0" index="154" value="1.00000"/>
  <variable name="x_12_0" index="168" value="1.00000"/>
  <variable name="x_13_8" index="190" value="1.00000"/>
  <variable name="x_14_3" index="199" value="1.00000"/>
  <variable name="u_1" index="210" value="9.00000"/>
  <variable name="u_2" index="211" value="76.00000"/>
  <variable name="u_3" index="212" value="55.00000"/>
  <variable name="u_4" index="213" value="74.00000"/>
  <variable name="u_5" index="214" value="21.00000"/>
  <variable name="u_6" index="215" value="53.00000"/>
  <variable name="u_7" index="216" value="64.00000"/>
  <variable name="u_8" index="217" value="73.00000"/>
  <variable name="u_9" index="218" value="68.00000"/>
  <variable name="u_10" index="219" value="62.00000"/>
  <variable name="u_11" index="220" value="60.00000"/>
  <variable name="u_12" index="221" value="72.00000"/>
  <variable name="u_13" index="222" value="35.00000"/>
  <variable name="u_14" index="223" value="3.00000"/>
 </variables>
</CPLEXSolution>
